-191.0 8.0 10.0 2.0 8.0 3.0 8.0 5.0 10.0 10.0 4.0 7.0 8.0 8.0 8.0 4.0 6.0 7.0 9.0 3.0 4.0 2.0 8.0 2.0 1.0 8.0 8.0 9.0 4.0 8.0 0.0 9.0 
8.0 -187.0 9.0 6.0 6.0 10.0 7.0 2.0 8.0 7.0 8.0 10.0 1.0 4.0 6.0 5.0 4.0 5.0 3.0 6.0 1.0 10.0 7.0 6.0 5.0 3.0 6.0 5.0 8.0 8.0 4.0 9.0 
10.0 9.0 -147.0 0.0 3.0 6.0 8.0 5.0 4.0 0.0 1.0 4.0 7.0 1.0 10.0 9.0 1.0 10.0 2.0 5.0 2.0 2.0 0.0 10.0 2.0 9.0 3.0 0.0 3.0 10.0 2.0 9.0 
2.0 6.0 0.0 -130.0 2.0 3.0 9.0 8.0 2.0 8.0 1.0 2.0 8.0 5.0 5.0 4.0 2.0 3.0 5.0 8.0 4.0 2.0 3.0 4.0 7.0 0.0 3.0 8.0 2.0 4.0 3.0 7.0 
8.0 6.0 3.0 2.0 -158.0 2.0 7.0 1.0 0.0 0.0 6.0 1.0 9.0 9.0 5.0 0.0 10.0 9.0 2.0 10.0 8.0 6.0 0.0 1.0 4.0 8.0 4.0 9.0 7.0 4.0 7.0 10.0 
3.0 10.0 6.0 3.0 2.0 -147.0 8.0 5.0 1.0 0.0 8.0 3.0 1.0 3.0 0.0 0.0 7.0 6.0 10.0 7.0 8.0 6.0 9.0 6.0 2.0 3.0 9.0 5.0 6.0 0.0 6.0 4.0 
8.0 7.0 8.0 9.0 7.0 8.0 -182.0 5.0 2.0 2.0 10.0 0.0 10.0 10.0 0.0 3.0 4.0 3.0 1.0 5.0 2.0 5.0 7.0 9.0 8.0 1.0 10.0 6.0 7.0 6.0 9.0 10.0 
5.0 2.0 5.0 8.0 1.0 5.0 5.0 -157.0 9.0 2.0 4.0 7.0 7.0 3.0 3.0 1.0 8.0 9.0 8.0 10.0 4.0 7.0 0.0 10.0 7.0 3.0 1.0 2.0 10.0 6.0 1.0 4.0 
10.0 8.0 4.0 2.0 0.0 1.0 2.0 9.0 -166.0 9.0 0.0 9.0 9.0 9.0 0.0 10.0 10.0 6.0 4.0 4.0 0.0 10.0 9.0 2.0 0.0 9.0 4.0 5.0 9.0 1.0 2.0 9.0 
10.0 7.0 0.0 8.0 0.0 0.0 2.0 2.0 9.0 -155.0 1.0 4.0 3.0 10.0 4.0 5.0 3.0 8.0 10.0 6.0 8.0 6.0 9.0 0.0 2.0 9.0 6.0 7.0 3.0 0.0 4.0 9.0 
4.0 8.0 1.0 1.0 6.0 8.0 10.0 4.0 0.0 1.0 -164.0 5.0 9.0 1.0 3.0 7.0 7.0 9.0 4.0 6.0 9.0 0.0 7.0 4.0 5.0 2.0 6.0 10.0 6.0 2.0 9.0 10.0 
7.0 10.0 4.0 2.0 1.0 3.0 0.0 7.0 9.0 4.0 5.0 -136.0 5.0 2.0 4.0 6.0 3.0 8.0 4.0 4.0 7.0 2.0 5.0 3.0 2.0 9.0 0.0 4.0 6.0 1.0 9.0 0.0 
8.0 1.0 7.0 8.0 9.0 1.0 10.0 7.0 9.0 3.0 9.0 5.0 -159.0 1.0 6.0 4.0 9.0 6.0 7.0 0.0 7.0 2.0 1.0 7.0 5.0 3.0 6.0 0.0 4.0 6.0 0.0 8.0 
8.0 4.0 1.0 5.0 9.0 3.0 10.0 3.0 9.0 10.0 1.0 2.0 1.0 -169.0 4.0 0.0 7.0 1.0 10.0 6.0 7.0 9.0 3.0 10.0 6.0 1.0 6.0 9.0 6.0 9.0 2.0 7.0 
8.0 6.0 10.0 5.0 5.0 0.0 0.0 3.0 0.0 4.0 3.0 4.0 6.0 4.0 -154.0 0.0 0.0 7.0 10.0 8.0 6.0 9.0 8.0 8.0 1.0 4.0 9.0 5.0 6.0 0.0 7.0 8.0 
4.0 5.0 9.0 4.0 0.0 0.0 3.0 1.0 10.0 5.0 7.0 6.0 4.0 0.0 0.0 -152.0 2.0 9.0 10.0 10.0 6.0 8.0 6.0 0.0 2.0 7.0 10.0 4.0 8.0 0.0 7.0 5.0 
6.0 4.0 1.0 2.0 10.0 7.0 4.0 8.0 10.0 3.0 7.0 3.0 9.0 7.0 0.0 2.0 -142.0 2.0 7.0 0.0 1.0 8.0 4.0 2.0 4.0 5.0 1.0 6.0 9.0 2.0 0.0 8.0 
7.0 5.0 10.0 3.0 9.0 6.0 3.0 9.0 6.0 8.0 9.0 8.0 6.0 1.0 7.0 9.0 2.0 -170.0 3.0 2.0 3.0 1.0 7.0 8.0 1.0 7.0 10.0 5.0 6.0 2.0 2.0 5.0 
9.0 3.0 2.0 5.0 2.0 10.0 1.0 8.0 4.0 10.0 4.0 4.0 7.0 10.0 10.0 10.0 7.0 3.0 -192.0 0.0 10.0 8.0 2.0 9.0 7.0 7.0 3.0 10.0 5.0 5.0 7.0 10.0 
3.0 6.0 5.0 8.0 10.0 7.0 5.0 10.0 4.0 6.0 6.0 4.0 0.0 6.0 8.0 10.0 0.0 2.0 0.0 -168.0 1.0 2.0 8.0 9.0 9.0 2.0 7.0 9.0 7.0 5.0 1.0 8.0 
4.0 1.0 2.0 4.0 8.0 8.0 2.0 4.0 0.0 8.0 9.0 7.0 7.0 7.0 6.0 6.0 1.0 3.0 10.0 1.0 -159.0 0.0 4.0 6.0 3.0 10.0 10.0 6.0 6.0 5.0 10.0 1.0 
2.0 10.0 2.0 2.0 6.0 6.0 5.0 7.0 10.0 6.0 0.0 2.0 2.0 9.0 9.0 8.0 8.0 1.0 8.0 2.0 0.0 -158.0 10.0 4.0 9.0 8.0 2.0 0.0 4.0 3.0 4.0 9.0 
8.0 7.0 0.0 3.0 0.0 9.0 7.0 0.0 9.0 9.0 7.0 5.0 1.0 3.0 8.0 6.0 4.0 7.0 2.0 8.0 4.0 10.0 -162.0 8.0 7.0 1.0 6.0 7.0 0.0 8.0 2.0 6.0 
2.0 6.0 10.0 4.0 1.0 6.0 9.0 10.0 2.0 0.0 4.0 3.0 7.0 10.0 8.0 0.0 2.0 8.0 9.0 9.0 6.0 4.0 8.0 -178.0 7.0 7.0 8.0 1.0 0.0 7.0 10.0 10.0 
1.0 5.0 2.0 7.0 4.0 2.0 8.0 7.0 0.0 2.0 5.0 2.0 5.0 6.0 1.0 2.0 4.0 1.0 7.0 9.0 3.0 9.0 7.0 7.0 -147.0 8.0 7.0 0.0 7.0 5.0 6.0 8.0 
8.0 3.0 9.0 0.0 8.0 3.0 1.0 3.0 9.0 9.0 2.0 9.0 3.0 1.0 4.0 7.0 5.0 7.0 7.0 2.0 10.0 8.0 1.0 7.0 8.0 -154.0 0.0 1.0 2.0 5.0 10.0 2.0 
8.0 6.0 3.0 3.0 4.0 9.0 10.0 1.0 4.0 6.0 6.0 0.0 6.0 6.0 9.0 10.0 1.0 10.0 3.0 7.0 10.0 2.0 6.0 8.0 7.0 0.0 -174.0 1.0 7.0 10.0 3.0 8.0 
9.0 5.0 0.0 8.0 9.0 5.0 6.0 2.0 5.0 7.0 10.0 4.0 0.0 9.0 5.0 4.0 6.0 5.0 10.0 9.0 6.0 0.0 7.0 1.0 0.0 1.0 1.0 -157.0 6.0 9.0 8.0 0.0 
4.0 8.0 3.0 2.0 7.0 6.0 7.0 10.0 9.0 3.0 6.0 6.0 4.0 6.0 6.0 8.0 9.0 6.0 5.0 7.0 6.0 4.0 0.0 0.0 7.0 2.0 7.0 6.0 -170.0 4.0 7.0 5.0 
8.0 8.0 10.0 4.0 4.0 0.0 6.0 6.0 1.0 0.0 2.0 1.0 6.0 9.0 0.0 0.0 2.0 2.0 5.0 5.0 5.0 3.0 8.0 7.0 5.0 5.0 10.0 9.0 4.0 -144.0 4.0 5.0 
0.0 4.0 2.0 3.0 7.0 6.0 9.0 1.0 2.0 4.0 9.0 9.0 0.0 2.0 7.0 7.0 0.0 2.0 7.0 1.0 10.0 4.0 2.0 10.0 6.0 10.0 3.0 8.0 7.0 4.0 -155.0 9.0 
9.0 9.0 9.0 7.0 10.0 4.0 10.0 4.0 9.0 9.0 10.0 0.0 8.0 7.0 8.0 5.0 8.0 5.0 10.0 8.0 1.0 9.0 6.0 10.0 8.0 2.0 8.0 0.0 5.0 5.0 9.0 -212.0 

